p wcnf 647 2089 2090
1 -1 0
2090 1 2 -176 0
2090 1 -2 176 0
2090 -1 2 176 0
2090 -1 -2 -176 0
2090 1 2 -177 0
2090 1 -2 177 0
2090 -1 2 177 0
2090 -1 -2 -177 0
1 -2 0
2090 176 3 -178 0
2090 176 -3 178 0
2090 -176 3 178 0
2090 -176 -3 -178 0
2090 2 3 -179 0
2090 2 -3 179 0
2090 -2 3 179 0
2090 -2 -3 -179 0
1 -3 0
2090 178 4 -180 0
2090 178 -4 180 0
2090 -178 4 180 0
2090 -178 -4 -180 0
2090 3 4 -181 0
2090 3 -4 181 0
2090 -3 4 181 0
2090 -3 -4 -181 0
1 -4 0
2090 177 5 -182 0
2090 177 -5 182 0
2090 -177 5 182 0
2090 -177 -5 -182 0
1 -5 0
2090 182 6 -183 0
2090 182 -6 183 0
2090 -182 6 183 0
2090 -182 -6 -183 0
2090 179 6 -184 0
2090 179 -6 184 0
2090 -179 6 184 0
2090 -179 -6 -184 0
1 -6 0
2090 184 7 -185 0
2090 184 -7 185 0
2090 -184 7 185 0
2090 -184 -7 -185 0
2090 181 7 -186 0
2090 181 -7 186 0
2090 -181 7 186 0
2090 -181 -7 -186 0
1 -7 0
1 -8 0
1 -9 0
1 -10 0
1 -11 0
1 -12 0
1 -13 0
1 -14 0
2090 14 15 -187 0
2090 14 -15 187 0
2090 -14 15 187 0
2090 -14 -15 -187 0
1 -15 0
2090 187 16 -188 0
2090 187 -16 188 0
2090 -187 16 188 0
2090 -187 -16 -188 0
2090 15 16 -189 0
2090 15 -16 189 0
2090 -15 16 189 0
2090 -15 -16 -189 0
1 -16 0
2090 188 17 -190 0
2090 188 -17 190 0
2090 -188 17 190 0
2090 -188 -17 -190 0
2090 189 17 -191 0
2090 189 -17 191 0
2090 -189 17 191 0
2090 -189 -17 -191 0
2090 16 17 -192 0
2090 16 -17 192 0
2090 -16 17 192 0
2090 -16 -17 -192 0
1 -17 0
2090 190 18 -193 0
2090 190 -18 193 0
2090 -190 18 193 0
2090 -190 -18 -193 0
2090 191 18 -194 0
2090 191 -18 194 0
2090 -191 18 194 0
2090 -191 -18 -194 0
2090 17 18 -195 0
2090 17 -18 195 0
2090 -17 18 195 0
2090 -17 -18 -195 0
2090 17 18 -196 0
2090 17 -18 196 0
2090 -17 18 196 0
2090 -17 -18 -196 0
1 -18 0
2090 193 19 -197 0
2090 193 -19 197 0
2090 -193 19 197 0
2090 -193 -19 -197 0
2090 194 19 -198 0
2090 194 -19 198 0
2090 -194 19 198 0
2090 -194 -19 -198 0
2090 195 19 -199 0
2090 195 -19 199 0
2090 -195 19 199 0
2090 -195 -19 -199 0
2090 196 19 -200 0
2090 196 -19 200 0
2090 -196 19 200 0
2090 -196 -19 -200 0
1 -19 0
2090 197 20 -201 0
2090 197 -20 201 0
2090 -197 20 201 0
2090 -197 -20 -201 0
2090 198 20 -202 0
2090 198 -20 202 0
2090 -198 20 202 0
2090 -198 -20 -202 0
2090 199 20 -203 0
2090 199 -20 203 0
2090 -199 20 203 0
2090 -199 -20 -203 0
2090 200 20 -204 0
2090 200 -20 204 0
2090 -200 20 204 0
2090 -200 -20 -204 0
1 -20 0
2090 201 21 -205 0
2090 201 -21 205 0
2090 -201 21 205 0
2090 -201 -21 -205 0
2090 202 21 -206 0
2090 202 -21 206 0
2090 -202 21 206 0
2090 -202 -21 -206 0
2090 19 21 -207 0
2090 19 -21 207 0
2090 -19 21 207 0
2090 -19 -21 -207 0
1 -21 0
2090 205 22 -208 0
2090 205 -22 208 0
2090 -205 22 208 0
2090 -205 -22 -208 0
2090 206 22 -209 0
2090 206 -22 209 0
2090 -206 22 209 0
2090 -206 -22 -209 0
2090 20 22 -210 0
2090 20 -22 210 0
2090 -20 22 210 0
2090 -20 -22 -210 0
1 -22 0
2090 208 23 -211 0
2090 208 -23 211 0
2090 -208 23 211 0
2090 -208 -23 -211 0
2090 192 23 -212 0
2090 192 -23 212 0
2090 -192 23 212 0
2090 -192 -23 -212 0
1 -23 0
2090 211 24 -213 0
2090 211 -24 213 0
2090 -211 24 213 0
2090 -211 -24 -213 0
2090 212 24 -214 0
2090 212 -24 214 0
2090 -212 24 214 0
2090 -212 -24 -214 0
2090 203 24 -215 0
2090 203 -24 215 0
2090 -203 24 215 0
2090 -203 -24 -215 0
2090 186 24 -216 0
2090 186 -24 216 0
2090 -186 24 216 0
2090 -186 -24 -216 0
1 -24 0
2090 213 25 -217 0
2090 213 -25 217 0
2090 -213 25 217 0
2090 -213 -25 -217 0
2090 215 25 -218 0
2090 215 -25 218 0
2090 -215 25 218 0
2090 -215 -25 -218 0
2090 216 25 -219 0
2090 216 -25 219 0
2090 -216 25 219 0
2090 -216 -25 -219 0
1 -25 0
2090 217 26 -220 0
2090 217 -26 220 0
2090 -217 26 220 0
2090 -217 -26 -220 0
2090 218 26 -221 0
2090 218 -26 221 0
2090 -218 26 221 0
2090 -218 -26 -221 0
2090 219 26 -222 0
2090 219 -26 222 0
2090 -219 26 222 0
2090 -219 -26 -222 0
1 -26 0
2090 220 27 -223 0
2090 220 -27 223 0
2090 -220 27 223 0
2090 -220 -27 -223 0
2090 25 27 -224 0
2090 25 -27 224 0
2090 -25 27 224 0
2090 -25 -27 -224 0
1 -27 0
2090 209 28 -225 0
2090 209 -28 225 0
2090 -209 28 225 0
2090 -209 -28 -225 0
1 -28 0
2090 225 29 -226 0
2090 225 -29 226 0
2090 -225 29 226 0
2090 -225 -29 -226 0
2090 214 29 -227 0
2090 214 -29 227 0
2090 -214 29 227 0
2090 -214 -29 -227 0
1 -29 0
2090 226 30 -228 0
2090 226 -30 228 0
2090 -226 30 228 0
2090 -226 -30 -228 0
2090 227 30 -229 0
2090 227 -30 229 0
2090 -227 30 229 0
2090 -227 -30 -229 0
2090 204 30 -230 0
2090 204 -30 230 0
2090 -204 30 230 0
2090 -204 -30 -230 0
1 -30 0
2090 228 31 -231 0
2090 228 -31 231 0
2090 -228 31 231 0
2090 -228 -31 -231 0
1 -31 0
2090 231 32 -232 0
2090 231 -32 232 0
2090 -231 32 232 0
2090 -231 -32 -232 0
2090 31 32 -233 0
2090 31 -32 233 0
2090 -31 32 233 0
2090 -31 -32 -233 0
2090 30 32 -234 0
2090 30 -32 234 0
2090 -30 32 234 0
2090 -30 -32 -234 0
2090 230 32 -235 0
2090 230 -32 235 0
2090 -230 32 235 0
2090 -230 -32 -235 0
1 -32 0
2090 232 33 -236 0
2090 232 -33 236 0
2090 -232 33 236 0
2090 -232 -33 -236 0
2090 233 33 -237 0
2090 233 -33 237 0
2090 -233 33 237 0
2090 -233 -33 -237 0
2090 235 33 -238 0
2090 235 -33 238 0
2090 -235 33 238 0
2090 -235 -33 -238 0
1 -33 0
2090 236 34 -239 0
2090 236 -34 239 0
2090 -236 34 239 0
2090 -236 -34 -239 0
2090 234 34 -240 0
2090 234 -34 240 0
2090 -234 34 240 0
2090 -234 -34 -240 0
2090 238 34 -241 0
2090 238 -34 241 0
2090 -238 34 241 0
2090 -238 -34 -241 0
2090 210 34 -242 0
2090 210 -34 242 0
2090 -210 34 242 0
2090 -210 -34 -242 0
1 -34 0
2090 239 35 -243 0
2090 239 -35 243 0
2090 -239 35 243 0
2090 -239 -35 -243 0
2090 241 35 -244 0
2090 241 -35 244 0
2090 -241 35 244 0
2090 -241 -35 -244 0
1 -35 0
2090 243 36 -245 0
2090 243 -36 245 0
2090 -243 36 245 0
2090 -243 -36 -245 0
2090 244 36 -246 0
2090 244 -36 246 0
2090 -244 36 246 0
2090 -244 -36 -246 0
2090 242 36 -247 0
2090 242 -36 247 0
2090 -242 36 247 0
2090 -242 -36 -247 0
1 -36 0
2090 245 37 -248 0
2090 245 -37 248 0
2090 -245 37 248 0
2090 -245 -37 -248 0
2090 246 37 -249 0
2090 246 -37 249 0
2090 -246 37 249 0
2090 -246 -37 -249 0
1 -37 0
2090 248 38 -250 0
2090 248 -38 250 0
2090 -248 38 250 0
2090 -248 -38 -250 0
2090 247 38 -251 0
2090 247 -38 251 0
2090 -247 38 251 0
2090 -247 -38 -251 0
1 -38 0
2090 250 39 -252 0
2090 250 -39 252 0
2090 -250 39 252 0
2090 -250 -39 -252 0
2090 37 39 -253 0
2090 37 -39 253 0
2090 -37 39 253 0
2090 -37 -39 -253 0
1 -39 0
2090 229 40 -254 0
2090 229 -40 254 0
2090 -229 40 254 0
2090 -229 -40 -254 0
1 -40 0
2090 254 41 -255 0
2090 254 -41 255 0
2090 -254 41 255 0
2090 -254 -41 -255 0
2090 221 41 -256 0
2090 221 -41 256 0
2090 -221 41 256 0
2090 -221 -41 -256 0
2090 240 41 -257 0
2090 240 -41 257 0
2090 -240 41 257 0
2090 -240 -41 -257 0
2090 224 41 -258 0
2090 224 -41 258 0
2090 -224 41 258 0
2090 -224 -41 -258 0
1 -41 0
2090 255 42 -259 0
2090 255 -42 259 0
2090 -255 42 259 0
2090 -255 -42 -259 0
2090 256 42 -260 0
2090 256 -42 260 0
2090 -256 42 260 0
2090 -256 -42 -260 0
2090 257 42 -261 0
2090 257 -42 261 0
2090 -257 42 261 0
2090 -257 -42 -261 0
2090 207 42 -262 0
2090 207 -42 262 0
2090 -207 42 262 0
2090 -207 -42 -262 0
1 -42 0
2090 259 43 -263 0
2090 259 -43 263 0
2090 -259 43 263 0
2090 -259 -43 -263 0
2090 260 43 -264 0
2090 260 -43 264 0
2090 -260 43 264 0
2090 -260 -43 -264 0
2090 261 43 -265 0
2090 261 -43 265 0
2090 -261 43 265 0
2090 -261 -43 -265 0
2090 251 43 -266 0
2090 251 -43 266 0
2090 -251 43 266 0
2090 -251 -43 -266 0
1 -43 0
2090 263 44 -267 0
2090 263 -44 267 0
2090 -263 44 267 0
2090 -263 -44 -267 0
2090 264 44 -268 0
2090 264 -44 268 0
2090 -264 44 268 0
2090 -264 -44 -268 0
2090 249 44 -269 0
2090 249 -44 269 0
2090 -249 44 269 0
2090 -249 -44 -269 0
2090 262 44 -270 0
2090 262 -44 270 0
2090 -262 44 270 0
2090 -262 -44 -270 0
1 -44 0
2090 267 45 -271 0
2090 267 -45 271 0
2090 -267 45 271 0
2090 -267 -45 -271 0
2090 268 45 -272 0
2090 268 -45 272 0
2090 -268 45 272 0
2090 -268 -45 -272 0
2090 269 45 -273 0
2090 269 -45 273 0
2090 -269 45 273 0
2090 -269 -45 -273 0
2090 266 45 -274 0
2090 266 -45 274 0
2090 -266 45 274 0
2090 -266 -45 -274 0
1 -45 0
2090 271 46 -275 0
2090 271 -46 275 0
2090 -271 46 275 0
2090 -271 -46 -275 0
2090 272 46 -276 0
2090 272 -46 276 0
2090 -272 46 276 0
2090 -272 -46 -276 0
2090 258 46 -277 0
2090 258 -46 277 0
2090 -258 46 277 0
2090 -258 -46 -277 0
2090 222 46 -278 0
2090 222 -46 278 0
2090 -222 46 278 0
2090 -222 -46 -278 0
1 -46 0
2090 275 47 -279 0
2090 275 -47 279 0
2090 -275 47 279 0
2090 -275 -47 -279 0
2090 276 47 -280 0
2090 276 -47 280 0
2090 -276 47 280 0
2090 -276 -47 -280 0
2090 270 47 -281 0
2090 270 -47 281 0
2090 -270 47 281 0
2090 -270 -47 -281 0
2090 278 47 -282 0
2090 278 -47 282 0
2090 -278 47 282 0
2090 -278 -47 -282 0
1 -47 0
2090 279 48 -283 0
2090 279 -48 283 0
2090 -279 48 283 0
2090 -279 -48 -283 0
2090 265 48 -284 0
2090 265 -48 284 0
2090 -265 48 284 0
2090 -265 -48 -284 0
2090 273 48 -285 0
2090 273 -48 285 0
2090 -273 48 285 0
2090 -273 -48 -285 0
2090 281 48 -286 0
2090 281 -48 286 0
2090 -281 48 286 0
2090 -281 -48 -286 0
1 -48 0
2090 283 49 -287 0
2090 283 -49 287 0
2090 -283 49 287 0
2090 -283 -49 -287 0
2090 284 49 -288 0
2090 284 -49 288 0
2090 -284 49 288 0
2090 -284 -49 -288 0
2090 285 49 -289 0
2090 285 -49 289 0
2090 -285 49 289 0
2090 -285 -49 -289 0
2090 274 49 -290 0
2090 274 -49 290 0
2090 -274 49 290 0
2090 -274 -49 -290 0
1 -49 0
2090 287 50 -291 0
2090 287 -50 291 0
2090 -287 50 291 0
2090 -287 -50 -291 0
2090 288 50 -292 0
2090 288 -50 292 0
2090 -288 50 292 0
2090 -288 -50 -292 0
2090 277 50 -293 0
2090 277 -50 293 0
2090 -277 50 293 0
2090 -277 -50 -293 0
2090 282 50 -294 0
2090 282 -50 294 0
2090 -282 50 294 0
2090 -282 -50 -294 0
1 -50 0
2090 291 51 -295 0
2090 291 -51 295 0
2090 -291 51 295 0
2090 -291 -51 -295 0
2090 292 51 -296 0
2090 292 -51 296 0
2090 -292 51 296 0
2090 -292 -51 -296 0
2090 286 51 -297 0
2090 286 -51 297 0
2090 -286 51 297 0
2090 -286 -51 -297 0
2090 294 51 -298 0
2090 294 -51 298 0
2090 -294 51 298 0
2090 -294 -51 -298 0
1 -51 0
2090 295 52 -299 0
2090 295 -52 299 0
2090 -295 52 299 0
2090 -295 -52 -299 0
2090 296 52 -300 0
2090 296 -52 300 0
2090 -296 52 300 0
2090 -296 -52 -300 0
2090 298 52 -301 0
2090 298 -52 301 0
2090 -298 52 301 0
2090 -298 -52 -301 0
1 -52 0
2090 299 53 -302 0
2090 299 -53 302 0
2090 -299 53 302 0
2090 -299 -53 -302 0
2090 293 53 -303 0
2090 293 -53 303 0
2090 -293 53 303 0
2090 -293 -53 -303 0
1 -53 0
2090 302 54 -304 0
2090 302 -54 304 0
2090 -302 54 304 0
2090 -302 -54 -304 0
2090 297 54 -305 0
2090 297 -54 305 0
2090 -297 54 305 0
2090 -297 -54 -305 0
1 -54 0
2090 304 55 -306 0
2090 304 -55 306 0
2090 -304 55 306 0
2090 -304 -55 -306 0
2090 290 55 -307 0
2090 290 -55 307 0
2090 -290 55 307 0
2090 -290 -55 -307 0
1 -55 0
2090 237 56 -308 0
2090 237 -56 308 0
2090 -237 56 308 0
2090 -237 -56 -308 0
1 -56 0
2090 308 57 -309 0
2090 308 -57 309 0
2090 -308 57 309 0
2090 -308 -57 -309 0
2090 300 57 -310 0
2090 300 -57 310 0
2090 -300 57 310 0
2090 -300 -57 -310 0
2090 289 57 -311 0
2090 289 -57 311 0
2090 -289 57 311 0
2090 -289 -57 -311 0
2090 307 57 -312 0
2090 307 -57 312 0
2090 -307 57 312 0
2090 -307 -57 -312 0
1 -57 0
2090 309 58 -313 0
2090 309 -58 313 0
2090 -309 58 313 0
2090 -309 -58 -313 0
2090 310 58 -314 0
2090 310 -58 314 0
2090 -310 58 314 0
2090 -310 -58 -314 0
2090 311 58 -315 0
2090 311 -58 315 0
2090 -311 58 315 0
2090 -311 -58 -315 0
2090 253 58 -316 0
2090 253 -58 316 0
2090 -253 58 316 0
2090 -253 -58 -316 0
1 -58 0
2090 313 59 -317 0
2090 313 -59 317 0
2090 -313 59 317 0
2090 -313 -59 -317 0
2090 314 59 -318 0
2090 314 -59 318 0
2090 -314 59 318 0
2090 -314 -59 -318 0
1 -59 0
2090 317 60 -319 0
2090 317 -60 319 0
2090 -317 60 319 0
2090 -317 -60 -319 0
2090 318 60 -320 0
2090 318 -60 320 0
2090 -318 60 320 0
2090 -318 -60 -320 0
2090 59 60 -321 0
2090 59 -60 321 0
2090 -59 60 321 0
2090 -59 -60 -321 0
2090 312 60 -322 0
2090 312 -60 322 0
2090 -312 60 322 0
2090 -312 -60 -322 0
1 -60 0
2090 319 61 -323 0
2090 319 -61 323 0
2090 -319 61 323 0
2090 -319 -61 -323 0
2090 320 61 -324 0
2090 320 -61 324 0
2090 -320 61 324 0
2090 -320 -61 -324 0
2090 321 61 -325 0
2090 321 -61 325 0
2090 -321 61 325 0
2090 -321 -61 -325 0
2090 316 61 -326 0
2090 316 -61 326 0
2090 -316 61 326 0
2090 -316 -61 -326 0
1 -61 0
2090 323 62 -327 0
2090 323 -62 327 0
2090 -323 62 327 0
2090 -323 -62 -327 0
2090 315 62 -328 0
2090 315 -62 328 0
2090 -315 62 328 0
2090 -315 -62 -328 0
1 -62 0
2090 327 63 -329 0
2090 327 -63 329 0
2090 -327 63 329 0
2090 -327 -63 -329 0
2090 328 63 -330 0
2090 328 -63 330 0
2090 -328 63 330 0
2090 -328 -63 -330 0
2090 325 63 -331 0
2090 325 -63 331 0
2090 -325 63 331 0
2090 -325 -63 -331 0
1 -63 0
2090 329 64 -332 0
2090 329 -64 332 0
2090 -329 64 332 0
2090 -329 -64 -332 0
2090 330 64 -333 0
2090 330 -64 333 0
2090 -330 64 333 0
2090 -330 -64 -333 0
2090 331 64 -334 0
2090 331 -64 334 0
2090 -331 64 334 0
2090 -331 -64 -334 0
2090 322 64 -335 0
2090 322 -64 335 0
2090 -322 64 335 0
2090 -322 -64 -335 0
1 -64 0
2090 332 65 -336 0
2090 332 -65 336 0
2090 -332 65 336 0
2090 -332 -65 -336 0
2090 333 65 -337 0
2090 333 -65 337 0
2090 -333 65 337 0
2090 -333 -65 -337 0
2090 334 65 -338 0
2090 334 -65 338 0
2090 -334 65 338 0
2090 -334 -65 -338 0
2090 326 65 -339 0
2090 326 -65 339 0
2090 -326 65 339 0
2090 -326 -65 -339 0
1 -65 0
2090 336 66 -340 0
2090 336 -66 340 0
2090 -336 66 340 0
2090 -336 -66 -340 0
2090 337 66 -341 0
2090 337 -66 341 0
2090 -337 66 341 0
2090 -337 -66 -341 0
2090 339 66 -342 0
2090 339 -66 342 0
2090 -339 66 342 0
2090 -339 -66 -342 0
1 -66 0
2090 340 67 -343 0
2090 340 -67 343 0
2090 -340 67 343 0
2090 -340 -67 -343 0
2090 338 67 -344 0
2090 338 -67 344 0
2090 -338 67 344 0
2090 -338 -67 -344 0
1 -67 0
2090 343 68 -345 0
2090 343 -68 345 0
2090 -343 68 345 0
2090 -343 -68 -345 0
2090 344 68 -346 0
2090 344 -68 346 0
2090 -344 68 346 0
2090 -344 -68 -346 0
2090 342 68 -347 0
2090 342 -68 347 0
2090 -342 68 347 0
2090 -342 -68 -347 0
1 -68 0
2090 345 69 -348 0
2090 345 -69 348 0
2090 -345 69 348 0
2090 -345 -69 -348 0
2090 335 69 -349 0
2090 335 -69 349 0
2090 -335 69 349 0
2090 -335 -69 -349 0
1 -69 0
2090 348 70 -350 0
2090 348 -70 350 0
2090 -348 70 350 0
2090 -348 -70 -350 0
2090 347 70 -351 0
2090 347 -70 351 0
2090 -347 70 351 0
2090 -347 -70 -351 0
1 -70 0
2090 280 71 -352 0
2090 280 -71 352 0
2090 -280 71 352 0
2090 -280 -71 -352 0
2090 324 71 -353 0
2090 324 -71 353 0
2090 -324 71 353 0
2090 -324 -71 -353 0
1 -71 0
2090 352 72 -354 0
2090 352 -72 354 0
2090 -352 72 354 0
2090 -352 -72 -354 0
2090 353 72 -355 0
2090 353 -72 355 0
2090 -353 72 355 0
2090 -353 -72 -355 0
2090 303 72 -356 0
2090 303 -72 356 0
2090 -303 72 356 0
2090 -303 -72 -356 0
2090 305 72 -357 0
2090 305 -72 357 0
2090 -305 72 357 0
2090 -305 -72 -357 0
1 -72 0
2090 354 73 -358 0
2090 354 -73 358 0
2090 -354 73 358 0
2090 -354 -73 -358 0
2090 355 73 -359 0
2090 355 -73 359 0
2090 -355 73 359 0
2090 -355 -73 -359 0
2090 357 73 -360 0
2090 357 -73 360 0
2090 -357 73 360 0
2090 -357 -73 -360 0
2090 349 73 -361 0
2090 349 -73 361 0
2090 -349 73 361 0
2090 -349 -73 -361 0
1 -73 0
2090 358 74 -362 0
2090 358 -74 362 0
2090 -358 74 362 0
2090 -358 -74 -362 0
2090 341 74 -363 0
2090 341 -74 363 0
2090 -341 74 363 0
2090 -341 -74 -363 0
1 -74 0
2090 362 75 -364 0
2090 362 -75 364 0
2090 -362 75 364 0
2090 -362 -75 -364 0
2090 363 75 -365 0
2090 363 -75 365 0
2090 -363 75 365 0
2090 -363 -75 -365 0
2090 360 75 -366 0
2090 360 -75 366 0
2090 -360 75 366 0
2090 -360 -75 -366 0
2090 361 75 -367 0
2090 361 -75 367 0
2090 -361 75 367 0
2090 -361 -75 -367 0
1 -75 0
2090 364 76 -368 0
2090 364 -76 368 0
2090 -364 76 368 0
2090 -364 -76 -368 0
2090 365 76 -369 0
2090 365 -76 369 0
2090 -365 76 369 0
2090 -365 -76 -369 0
2090 367 76 -370 0
2090 367 -76 370 0
2090 -367 76 370 0
2090 -367 -76 -370 0
1 -76 0
2090 368 77 -371 0
2090 368 -77 371 0
2090 -368 77 371 0
2090 -368 -77 -371 0
2090 356 77 -372 0
2090 356 -77 372 0
2090 -356 77 372 0
2090 -356 -77 -372 0
2090 366 77 -373 0
2090 366 -77 373 0
2090 -366 77 373 0
2090 -366 -77 -373 0
1 -77 0
2090 371 78 -374 0
2090 371 -78 374 0
2090 -371 78 374 0
2090 -371 -78 -374 0
2090 372 78 -375 0
2090 372 -78 375 0
2090 -372 78 375 0
2090 -372 -78 -375 0
2090 373 78 -376 0
2090 373 -78 376 0
2090 -373 78 376 0
2090 -373 -78 -376 0
2090 301 78 -377 0
2090 301 -78 377 0
2090 -301 78 377 0
2090 -301 -78 -377 0
1 -78 0
2090 374 79 -378 0
2090 374 -79 378 0
2090 -374 79 378 0
2090 -374 -79 -378 0
2090 375 79 -379 0
2090 375 -79 379 0
2090 -375 79 379 0
2090 -375 -79 -379 0
2090 370 79 -380 0
2090 370 -79 380 0
2090 -370 79 380 0
2090 -370 -79 -380 0
1 -79 0
2090 378 80 -381 0
2090 378 -80 381 0
2090 -378 80 381 0
2090 -378 -80 -381 0
2090 379 80 -382 0
2090 379 -80 382 0
2090 -379 80 382 0
2090 -379 -80 -382 0
2090 380 80 -383 0
2090 380 -80 383 0
2090 -380 80 383 0
2090 -380 -80 -383 0
2090 77 80 -384 0
2090 77 -80 384 0
2090 -77 80 384 0
2090 -77 -80 -384 0
1 -80 0
2090 381 81 -385 0
2090 381 -81 385 0
2090 -381 81 385 0
2090 -381 -81 -385 0
2090 382 81 -386 0
2090 382 -81 386 0
2090 -382 81 386 0
2090 -382 -81 -386 0
2090 383 81 -387 0
2090 383 -81 387 0
2090 -383 81 387 0
2090 -383 -81 -387 0
2090 377 81 -388 0
2090 377 -81 388 0
2090 -377 81 388 0
2090 -377 -81 -388 0
1 -81 0
2090 385 82 -389 0
2090 385 -82 389 0
2090 -385 82 389 0
2090 -385 -82 -389 0
2090 386 82 -390 0
2090 386 -82 390 0
2090 -386 82 390 0
2090 -386 -82 -390 0
2090 79 82 -391 0
2090 79 -82 391 0
2090 -79 82 391 0
2090 -79 -82 -391 0
1 -82 0
2090 389 83 -392 0
2090 389 -83 392 0
2090 -389 83 392 0
2090 -389 -83 -392 0
2090 390 83 -393 0
2090 390 -83 393 0
2090 -390 83 393 0
2090 -390 -83 -393 0
2090 384 83 -394 0
2090 384 -83 394 0
2090 -384 83 394 0
2090 -384 -83 -394 0
1 -83 0
2090 392 84 -395 0
2090 392 -84 395 0
2090 -392 84 395 0
2090 -392 -84 -395 0
2090 393 84 -396 0
2090 393 -84 396 0
2090 -393 84 396 0
2090 -393 -84 -396 0
2090 388 84 -397 0
2090 388 -84 397 0
2090 -388 84 397 0
2090 -388 -84 -397 0
1 -84 0
2090 395 85 -398 0
2090 395 -85 398 0
2090 -395 85 398 0
2090 -395 -85 -398 0
2090 376 85 -399 0
2090 376 -85 399 0
2090 -376 85 399 0
2090 -376 -85 -399 0
2090 387 85 -400 0
2090 387 -85 400 0
2090 -387 85 400 0
2090 -387 -85 -400 0
2090 394 85 -401 0
2090 394 -85 401 0
2090 -394 85 401 0
2090 -394 -85 -401 0
1 -85 0
2090 398 86 -402 0
2090 398 -86 402 0
2090 -398 86 402 0
2090 -398 -86 -402 0
2090 399 86 -403 0
2090 399 -86 403 0
2090 -399 86 403 0
2090 -399 -86 -403 0
2090 400 86 -404 0
2090 400 -86 404 0
2090 -400 86 404 0
2090 -400 -86 -404 0
2090 397 86 -405 0
2090 397 -86 405 0
2090 -397 86 405 0
2090 -397 -86 -405 0
1 -86 0
2090 402 87 -406 0
2090 402 -87 406 0
2090 -402 87 406 0
2090 -402 -87 -406 0
2090 404 87 -407 0
2090 404 -87 407 0
2090 -404 87 407 0
2090 -404 -87 -407 0
2090 391 87 -408 0
2090 391 -87 408 0
2090 -391 87 408 0
2090 -391 -87 -408 0
1 -87 0
2090 406 88 -409 0
2090 406 -88 409 0
2090 -406 88 409 0
2090 -406 -88 -409 0
2090 407 88 -410 0
2090 407 -88 410 0
2090 -407 88 410 0
2090 -407 -88 -410 0
2090 401 88 -411 0
2090 401 -88 411 0
2090 -401 88 411 0
2090 -401 -88 -411 0
1 -88 0
2090 409 89 -412 0
2090 409 -89 412 0
2090 -409 89 412 0
2090 -409 -89 -412 0
2090 408 89 -413 0
2090 408 -89 413 0
2090 -408 89 413 0
2090 -408 -89 -413 0
1 -89 0
2090 412 90 -414 0
2090 412 -90 414 0
2090 -412 90 414 0
2090 -412 -90 -414 0
2090 411 90 -415 0
2090 411 -90 415 0
2090 -411 90 415 0
2090 -411 -90 -415 0
1 -90 0
2090 414 91 -416 0
2090 414 -91 416 0
2090 -414 91 416 0
2090 -414 -91 -416 0
2090 405 91 -417 0
2090 405 -91 417 0
2090 -405 91 417 0
2090 -405 -91 -417 0
1 -91 0
2090 359 92 -418 0
2090 359 -92 418 0
2090 -359 92 418 0
2090 -359 -92 -418 0
2090 369 92 -419 0
2090 369 -92 419 0
2090 -369 92 419 0
2090 -369 -92 -419 0
1 -92 0
2090 418 93 -420 0
2090 418 -93 420 0
2090 -418 93 420 0
2090 -418 -93 -420 0
2090 419 93 -421 0
2090 419 -93 421 0
2090 -419 93 421 0
2090 -419 -93 -421 0
2090 403 93 -422 0
2090 403 -93 422 0
2090 -403 93 422 0
2090 -403 -93 -422 0
2090 410 93 -423 0
2090 410 -93 423 0
2090 -410 93 423 0
2090 -410 -93 -423 0
1 -93 0
2090 420 94 -424 0
2090 420 -94 424 0
2090 -420 94 424 0
2090 -420 -94 -424 0
2090 421 94 -425 0
2090 421 -94 425 0
2090 -421 94 425 0
2090 -421 -94 -425 0
2090 423 94 -426 0
2090 423 -94 426 0
2090 -423 94 426 0
2090 -423 -94 -426 0
2090 351 94 -427 0
2090 351 -94 427 0
2090 -351 94 427 0
2090 -351 -94 -427 0
1 -94 0
2090 424 95 -428 0
2090 424 -95 428 0
2090 -424 95 428 0
2090 -424 -95 -428 0
2090 346 95 -429 0
2090 346 -95 429 0
2090 -346 95 429 0
2090 -346 -95 -429 0
1 -95 0
2090 428 96 -430 0
2090 428 -96 430 0
2090 -428 96 430 0
2090 -428 -96 -430 0
2090 429 96 -431 0
2090 429 -96 431 0
2090 -429 96 431 0
2090 -429 -96 -431 0
2090 426 96 -432 0
2090 426 -96 432 0
2090 -426 96 432 0
2090 -426 -96 -432 0
2090 427 96 -433 0
2090 427 -96 433 0
2090 -427 96 433 0
2090 -427 -96 -433 0
1 -96 0
2090 430 97 -434 0
2090 430 -97 434 0
2090 -430 97 434 0
2090 -430 -97 -434 0
2090 431 97 -435 0
2090 431 -97 435 0
2090 -431 97 435 0
2090 -431 -97 -435 0
2090 433 97 -436 0
2090 433 -97 436 0
2090 -433 97 436 0
2090 -433 -97 -436 0
1 -97 0
2090 434 98 -437 0
2090 434 -98 437 0
2090 -434 98 437 0
2090 -434 -98 -437 0
2090 396 98 -438 0
2090 396 -98 438 0
2090 -396 98 438 0
2090 -396 -98 -438 0
2090 422 98 -439 0
2090 422 -98 439 0
2090 -422 98 439 0
2090 -422 -98 -439 0
2090 417 98 -440 0
2090 417 -98 440 0
2090 -417 98 440 0
2090 -417 -98 -440 0
1 -98 0
2090 437 99 -441 0
2090 437 -99 441 0
2090 -437 99 441 0
2090 -437 -99 -441 0
2090 439 99 -442 0
2090 439 -99 442 0
2090 -439 99 442 0
2090 -439 -99 -442 0
2090 432 99 -443 0
2090 432 -99 443 0
2090 -432 99 443 0
2090 -432 -99 -443 0
2090 413 99 -444 0
2090 413 -99 444 0
2090 -413 99 444 0
2090 -413 -99 -444 0
1 -99 0
2090 441 100 -445 0
2090 441 -100 445 0
2090 -441 100 445 0
2090 -441 -100 -445 0
2090 442 100 -446 0
2090 442 -100 446 0
2090 -442 100 446 0
2090 -442 -100 -446 0
2090 443 100 -447 0
2090 443 -100 447 0
2090 -443 100 447 0
2090 -443 -100 -447 0
1 -100 0
2090 445 101 -448 0
2090 445 -101 448 0
2090 -445 101 448 0
2090 -445 -101 -448 0
2090 446 101 -449 0
2090 446 -101 449 0
2090 -446 101 449 0
2090 -446 -101 -449 0
2090 436 101 -450 0
2090 436 -101 450 0
2090 -436 101 450 0
2090 -436 -101 -450 0
2090 444 101 -451 0
2090 444 -101 451 0
2090 -444 101 451 0
2090 -444 -101 -451 0
1 -101 0
2090 448 102 -452 0
2090 448 -102 452 0
2090 -448 102 452 0
2090 -448 -102 -452 0
2090 449 102 -453 0
2090 449 -102 453 0
2090 -449 102 453 0
2090 -449 -102 -453 0
2090 450 102 -454 0
2090 450 -102 454 0
2090 -450 102 454 0
2090 -450 -102 -454 0
2090 100 102 -455 0
2090 100 -102 455 0
2090 -100 102 455 0
2090 -100 -102 -455 0
1 -102 0
2090 452 103 -456 0
2090 452 -103 456 0
2090 -452 103 456 0
2090 -452 -103 -456 0
2090 453 103 -457 0
2090 453 -103 457 0
2090 -453 103 457 0
2090 -453 -103 -457 0
2090 454 103 -458 0
2090 454 -103 458 0
2090 -454 103 458 0
2090 -454 -103 -458 0
1 -103 0
2090 456 104 -459 0
2090 456 -104 459 0
2090 -456 104 459 0
2090 -456 -104 -459 0
2090 457 104 -460 0
2090 457 -104 460 0
2090 -457 104 460 0
2090 -457 -104 -460 0
2090 455 104 -461 0
2090 455 -104 461 0
2090 -455 104 461 0
2090 -455 -104 -461 0
1 -104 0
2090 459 105 -462 0
2090 459 -105 462 0
2090 -459 105 462 0
2090 -459 -105 -462 0
2090 460 105 -463 0
2090 460 -105 463 0
2090 -460 105 463 0
2090 -460 -105 -463 0
2090 103 105 -464 0
2090 103 -105 464 0
2090 -103 105 464 0
2090 -103 -105 -464 0
1 -105 0
2090 462 106 -465 0
2090 462 -106 465 0
2090 -462 106 465 0
2090 -462 -106 -465 0
2090 463 106 -466 0
2090 463 -106 466 0
2090 -463 106 466 0
2090 -463 -106 -466 0
2090 440 106 -467 0
2090 440 -106 467 0
2090 -440 106 467 0
2090 -440 -106 -467 0
1 -106 0
2090 465 107 -468 0
2090 465 -107 468 0
2090 -465 107 468 0
2090 -465 -107 -468 0
2090 447 107 -469 0
2090 447 -107 469 0
2090 -447 107 469 0
2090 -447 -107 -469 0
2090 458 107 -470 0
2090 458 -107 470 0
2090 -458 107 470 0
2090 -458 -107 -470 0
2090 451 107 -471 0
2090 451 -107 471 0
2090 -451 107 471 0
2090 -451 -107 -471 0
1 -107 0
2090 468 108 -472 0
2090 468 -108 472 0
2090 -468 108 472 0
2090 -468 -108 -472 0
2090 469 108 -473 0
2090 469 -108 473 0
2090 -469 108 473 0
2090 -469 -108 -473 0
2090 470 108 -474 0
2090 470 -108 474 0
2090 -470 108 474 0
2090 -470 -108 -474 0
2090 461 108 -475 0
2090 461 -108 475 0
2090 -461 108 475 0
2090 -461 -108 -475 0
1 -108 0
2090 472 109 -476 0
2090 472 -109 476 0
2090 -472 109 476 0
2090 -472 -109 -476 0
2090 474 109 -477 0
2090 474 -109 477 0
2090 -474 109 477 0
2090 -474 -109 -477 0
2090 475 109 -478 0
2090 475 -109 478 0
2090 -475 109 478 0
2090 -475 -109 -478 0
1 -109 0
2090 476 110 -479 0
2090 476 -110 479 0
2090 -476 110 479 0
2090 -476 -110 -479 0
2090 477 110 -480 0
2090 477 -110 480 0
2090 -477 110 480 0
2090 -477 -110 -480 0
2090 464 110 -481 0
2090 464 -110 481 0
2090 -464 110 481 0
2090 -464 -110 -481 0
1 -110 0
2090 479 111 -482 0
2090 479 -111 482 0
2090 -479 111 482 0
2090 -479 -111 -482 0
2090 471 111 -483 0
2090 471 -111 483 0
2090 -471 111 483 0
2090 -471 -111 -483 0
1 -111 0
2090 482 112 -484 0
2090 482 -112 484 0
2090 -482 112 484 0
2090 -482 -112 -484 0
2090 478 112 -485 0
2090 478 -112 485 0
2090 -478 112 485 0
2090 -478 -112 -485 0
1 -112 0
2090 484 113 -486 0
2090 484 -113 486 0
2090 -484 113 486 0
2090 -484 -113 -486 0
2090 481 113 -487 0
2090 481 -113 487 0
2090 -481 113 487 0
2090 -481 -113 -487 0
1 -113 0
2090 486 114 -488 0
2090 486 -114 488 0
2090 -486 114 488 0
2090 -486 -114 -488 0
2090 467 114 -489 0
2090 467 -114 489 0
2090 -467 114 489 0
2090 -467 -114 -489 0
1 -114 0
2090 425 115 -490 0
2090 425 -115 490 0
2090 -425 115 490 0
2090 -425 -115 -490 0
1 -115 0
2090 490 116 -491 0
2090 490 -116 491 0
2090 -490 116 491 0
2090 -490 -116 -491 0
2090 435 116 -492 0
2090 435 -116 492 0
2090 -435 116 492 0
2090 -435 -116 -492 0
1 -116 0
2090 491 117 -493 0
2090 491 -117 493 0
2090 -491 117 493 0
2090 -491 -117 -493 0
2090 492 117 -494 0
2090 492 -117 494 0
2090 -492 117 494 0
2090 -492 -117 -494 0
2090 473 117 -495 0
2090 473 -117 495 0
2090 -473 117 495 0
2090 -473 -117 -495 0
2090 480 117 -496 0
2090 480 -117 496 0
2090 -480 117 496 0
2090 -480 -117 -496 0
1 -117 0
2090 493 118 -497 0
2090 493 -118 497 0
2090 -493 118 497 0
2090 -493 -118 -497 0
2090 494 118 -498 0
2090 494 -118 498 0
2090 -494 118 498 0
2090 -494 -118 -498 0
2090 496 118 -499 0
2090 496 -118 499 0
2090 -496 118 499 0
2090 -496 -118 -499 0
1 -118 0
2090 497 119 -500 0
2090 497 -119 500 0
2090 -497 119 500 0
2090 -497 -119 -500 0
2090 466 119 -501 0
2090 466 -119 501 0
2090 -466 119 501 0
2090 -466 -119 -501 0
2090 495 119 -502 0
2090 495 -119 502 0
2090 -495 119 502 0
2090 -495 -119 -502 0
2090 483 119 -503 0
2090 483 -119 503 0
2090 -483 119 503 0
2090 -483 -119 -503 0
1 -119 0
2090 500 120 -504 0
2090 500 -120 504 0
2090 -500 120 504 0
2090 -500 -120 -504 0
2090 501 120 -505 0
2090 501 -120 505 0
2090 -501 120 505 0
2090 -501 -120 -505 0
2090 502 120 -506 0
2090 502 -120 506 0
2090 -502 120 506 0
2090 -502 -120 -506 0
2090 415 120 -507 0
2090 415 -120 507 0
2090 -415 120 507 0
2090 -415 -120 -507 0
1 -120 0
2090 504 121 -508 0
2090 504 -121 508 0
2090 -504 121 508 0
2090 -504 -121 -508 0
2090 506 121 -509 0
2090 506 -121 509 0
2090 -506 121 509 0
2090 -506 -121 -509 0
1 -121 0
2090 508 122 -510 0
2090 508 -122 510 0
2090 -508 122 510 0
2090 -508 -122 -510 0
2090 509 122 -511 0
2090 509 -122 511 0
2090 -509 122 511 0
2090 -509 -122 -511 0
2090 499 122 -512 0
2090 499 -122 512 0
2090 -499 122 512 0
2090 -499 -122 -512 0
1 -122 0
2090 510 123 -513 0
2090 510 -123 513 0
2090 -510 123 513 0
2090 -510 -123 -513 0
2090 511 123 -514 0
2090 511 -123 514 0
2090 -511 123 514 0
2090 -511 -123 -514 0
2090 512 123 -515 0
2090 512 -123 515 0
2090 -512 123 515 0
2090 -512 -123 -515 0
2090 503 123 -516 0
2090 503 -123 516 0
2090 -503 123 516 0
2090 -503 -123 -516 0
1 -123 0
2090 513 124 -517 0
2090 513 -124 517 0
2090 -513 124 517 0
2090 -513 -124 -517 0
2090 514 124 -518 0
2090 514 -124 518 0
2090 -514 124 518 0
2090 -514 -124 -518 0
2090 516 124 -519 0
2090 516 -124 519 0
2090 -516 124 519 0
2090 -516 -124 -519 0
1 -124 0
2090 517 125 -520 0
2090 517 -125 520 0
2090 -517 125 520 0
2090 -517 -125 -520 0
2090 515 125 -521 0
2090 515 -125 521 0
2090 -515 125 521 0
2090 -515 -125 -521 0
1 -125 0
2090 520 126 -522 0
2090 520 -126 522 0
2090 -520 126 522 0
2090 -520 -126 -522 0
2090 519 126 -523 0
2090 519 -126 523 0
2090 -519 126 523 0
2090 -519 -126 -523 0
1 -126 0
2090 522 127 -524 0
2090 522 -127 524 0
2090 -522 127 524 0
2090 -522 -127 -524 0
2090 507 127 -525 0
2090 507 -127 525 0
2090 -507 127 525 0
2090 -507 -127 -525 0
1 -127 0
2090 498 128 -526 0
2090 498 -128 526 0
2090 -498 128 526 0
2090 -498 -128 -526 0
1 -128 0
2090 526 129 -527 0
2090 526 -129 527 0
2090 -526 129 527 0
2090 -526 -129 -527 0
2090 521 129 -528 0
2090 521 -129 528 0
2090 -521 129 528 0
2090 -521 -129 -528 0
1 -129 0
2090 527 130 -529 0
2090 527 -130 529 0
2090 -527 130 529 0
2090 -527 -130 -529 0
2090 528 130 -530 0
2090 528 -130 530 0
2090 -528 130 530 0
2090 -528 -130 -530 0
2090 487 130 -531 0
2090 487 -130 531 0
2090 -487 130 531 0
2090 -487 -130 -531 0
1 -130 0
2090 529 131 -532 0
2090 529 -131 532 0
2090 -529 131 532 0
2090 -529 -131 -532 0
2090 531 131 -533 0
2090 531 -131 533 0
2090 -531 131 533 0
2090 -531 -131 -533 0
1 -131 0
2090 438 132 -534 0
2090 438 -132 534 0
2090 -438 132 534 0
2090 -438 -132 -534 0
1 -132 0
2090 534 133 -535 0
2090 534 -133 535 0
2090 -534 133 535 0
2090 -534 -133 -535 0
2090 505 133 -536 0
2090 505 -133 536 0
2090 -505 133 536 0
2090 -505 -133 -536 0
1 -133 0
2090 535 134 -537 0
2090 535 -134 537 0
2090 -535 134 537 0
2090 -535 -134 -537 0
2090 536 134 -538 0
2090 536 -134 538 0
2090 -536 134 538 0
2090 -536 -134 -538 0
2090 525 134 -539 0
2090 525 -134 539 0
2090 -525 134 539 0
2090 -525 -134 -539 0
2090 489 134 -540 0
2090 489 -134 540 0
2090 -489 134 540 0
2090 -489 -134 -540 0
1 -134 0
2090 537 135 -541 0
2090 537 -135 541 0
2090 -537 135 541 0
2090 -537 -135 -541 0
2090 518 135 -542 0
2090 518 -135 542 0
2090 -518 135 542 0
2090 -518 -135 -542 0
1 -135 0
2090 541 136 -543 0
2090 541 -136 543 0
2090 -541 136 543 0
2090 -541 -136 -543 0
2090 542 136 -544 0
2090 542 -136 544 0
2090 -542 136 544 0
2090 -542 -136 -544 0
2090 523 136 -545 0
2090 523 -136 545 0
2090 -523 136 545 0
2090 -523 -136 -545 0
2090 539 136 -546 0
2090 539 -136 546 0
2090 -539 136 546 0
2090 -539 -136 -546 0
1 -136 0
2090 543 137 -547 0
2090 543 -137 547 0
2090 -543 137 547 0
2090 -543 -137 -547 0
2090 544 137 -548 0
2090 544 -137 548 0
2090 -544 137 548 0
2090 -544 -137 -548 0
2090 546 137 -549 0
2090 546 -137 549 0
2090 -546 137 549 0
2090 -546 -137 -549 0
2090 540 137 -550 0
2090 540 -137 550 0
2090 -540 137 550 0
2090 -540 -137 -550 0
1 -137 0
2090 547 138 -551 0
2090 547 -138 551 0
2090 -547 138 551 0
2090 -547 -138 -551 0
2090 545 138 -552 0
2090 545 -138 552 0
2090 -545 138 552 0
2090 -545 -138 -552 0
2090 549 138 -553 0
2090 549 -138 553 0
2090 -549 138 553 0
2090 -549 -138 -553 0
1 -138 0
2090 551 139 -554 0
2090 551 -139 554 0
2090 -551 139 554 0
2090 -551 -139 -554 0
2090 553 139 -555 0
2090 553 -139 555 0
2090 -553 139 555 0
2090 -553 -139 -555 0
2090 550 139 -556 0
2090 550 -139 556 0
2090 -550 139 556 0
2090 -550 -139 -556 0
1 -139 0
2090 538 140 -557 0
2090 538 -140 557 0
2090 -538 140 557 0
2090 -538 -140 -557 0
1 -140 0
2090 557 141 -558 0
2090 557 -141 558 0
2090 -557 141 558 0
2090 -557 -141 -558 0
2090 548 141 -559 0
2090 548 -141 559 0
2090 -548 141 559 0
2090 -548 -141 -559 0
1 -141 0
2090 558 142 -560 0
2090 558 -142 560 0
2090 -558 142 560 0
2090 -558 -142 -560 0
2090 559 142 -561 0
2090 559 -142 561 0
2090 -559 142 561 0
2090 -559 -142 -561 0
2090 552 142 -562 0
2090 552 -142 562 0
2090 -552 142 562 0
2090 -552 -142 -562 0
2090 555 142 -563 0
2090 555 -142 563 0
2090 -555 142 563 0
2090 -555 -142 -563 0
1 -142 0
2090 560 143 -564 0
2090 560 -143 564 0
2090 -560 143 564 0
2090 -560 -143 -564 0
2090 561 143 -565 0
2090 561 -143 565 0
2090 -561 143 565 0
2090 -561 -143 -565 0
2090 562 143 -566 0
2090 562 -143 566 0
2090 -562 143 566 0
2090 -562 -143 -566 0
2090 485 143 -567 0
2090 485 -143 567 0
2090 -485 143 567 0
2090 -485 -143 -567 0
1 -143 0
2090 564 144 -568 0
2090 564 -144 568 0
2090 -564 144 568 0
2090 -564 -144 -568 0
2090 565 144 -569 0
2090 565 -144 569 0
2090 -565 144 569 0
2090 -565 -144 -569 0
2090 563 144 -570 0
2090 563 -144 570 0
2090 -563 144 570 0
2090 -563 -144 -570 0
2090 556 144 -571 0
2090 556 -144 571 0
2090 -556 144 571 0
2090 -556 -144 -571 0
1 -144 0
2090 568 145 -572 0
2090 568 -145 572 0
2090 -568 145 572 0
2090 -568 -145 -572 0
2090 530 145 -573 0
2090 530 -145 573 0
2090 -530 145 573 0
2090 -530 -145 -573 0
1 -145 0
2090 572 146 -574 0
2090 572 -146 574 0
2090 -572 146 574 0
2090 -572 -146 -574 0
2090 573 146 -575 0
2090 573 -146 575 0
2090 -573 146 575 0
2090 -573 -146 -575 0
2090 566 146 -576 0
2090 566 -146 576 0
2090 -566 146 576 0
2090 -566 -146 -576 0
2090 567 146 -577 0
2090 567 -146 577 0
2090 -567 146 577 0
2090 -567 -146 -577 0
1 -146 0
2090 574 147 -578 0
2090 574 -147 578 0
2090 -574 147 578 0
2090 -574 -147 -578 0
2090 575 147 -579 0
2090 575 -147 579 0
2090 -575 147 579 0
2090 -575 -147 -579 0
2090 577 147 -580 0
2090 577 -147 580 0
2090 -577 147 580 0
2090 -577 -147 -580 0
2090 533 147 -581 0
2090 533 -147 581 0
2090 -533 147 581 0
2090 -533 -147 -581 0
1 -147 0
2090 578 148 -582 0
2090 578 -148 582 0
2090 -578 148 582 0
2090 -578 -148 -582 0
2090 576 148 -583 0
2090 576 -148 583 0
2090 -576 148 583 0
2090 -576 -148 -583 0
2090 570 148 -584 0
2090 570 -148 584 0
2090 -570 148 584 0
2090 -570 -148 -584 0
1 -148 0
2090 582 149 -585 0
2090 582 -149 585 0
2090 -582 149 585 0
2090 -582 -149 -585 0
2090 583 149 -586 0
2090 583 -149 586 0
2090 -583 149 586 0
2090 -583 -149 -586 0
2090 580 149 -587 0
2090 580 -149 587 0
2090 -580 149 587 0
2090 -580 -149 -587 0
1 -149 0
2090 585 150 -588 0
2090 585 -150 588 0
2090 -585 150 588 0
2090 -585 -150 -588 0
2090 584 150 -589 0
2090 584 -150 589 0
2090 -584 150 589 0
2090 -584 -150 -589 0
2090 587 150 -590 0
2090 587 -150 590 0
2090 -587 150 590 0
2090 -587 -150 -590 0
1 -150 0
2090 588 151 -591 0
2090 588 -151 591 0
2090 -588 151 591 0
2090 -588 -151 -591 0
2090 589 151 -592 0
2090 589 -151 592 0
2090 -589 151 592 0
2090 -589 -151 -592 0
2090 571 151 -593 0
2090 571 -151 593 0
2090 -571 151 593 0
2090 -571 -151 -593 0
1 -151 0
2090 591 152 -594 0
2090 591 -152 594 0
2090 -591 152 594 0
2090 -591 -152 -594 0
2090 590 152 -595 0
2090 590 -152 595 0
2090 -590 152 595 0
2090 -590 -152 -595 0
2090 581 152 -596 0
2090 581 -152 596 0
2090 -581 152 596 0
2090 -581 -152 -596 0
1 -152 0
2090 594 153 -597 0
2090 594 -153 597 0
2090 -594 153 597 0
2090 -594 -153 -597 0
2090 595 153 -598 0
2090 595 -153 598 0
2090 -595 153 598 0
2090 -595 -153 -598 0
2090 593 153 -599 0
2090 593 -153 599 0
2090 -593 153 599 0
2090 -593 -153 -599 0
1 -153 0
2090 569 154 -600 0
2090 569 -154 600 0
2090 -569 154 600 0
2090 -569 -154 -600 0
1 -154 0
2090 600 155 -601 0
2090 600 -155 601 0
2090 -600 155 601 0
2090 -600 -155 -601 0
2090 579 155 -602 0
2090 579 -155 602 0
2090 -579 155 602 0
2090 -579 -155 -602 0
1 -155 0
2090 601 156 -603 0
2090 601 -156 603 0
2090 -601 156 603 0
2090 -601 -156 -603 0
2090 602 156 -604 0
2090 602 -156 604 0
2090 -602 156 604 0
2090 -602 -156 -604 0
2090 586 156 -605 0
2090 586 -156 605 0
2090 -586 156 605 0
2090 -586 -156 -605 0
1 -156 0
2090 603 157 -606 0
2090 603 -157 606 0
2090 -603 157 606 0
2090 -603 -157 -606 0
2090 604 157 -607 0
2090 604 -157 607 0
2090 -604 157 607 0
2090 -604 -157 -607 0
2090 605 157 -608 0
2090 605 -157 608 0
2090 -605 157 608 0
2090 -605 -157 -608 0
2090 598 157 -609 0
2090 598 -157 609 0
2090 -598 157 609 0
2090 -598 -157 -609 0
1 -157 0
2090 606 158 -610 0
2090 606 -158 610 0
2090 -606 158 610 0
2090 -606 -158 -610 0
2090 608 158 -611 0
2090 608 -158 611 0
2090 -608 158 611 0
2090 -608 -158 -611 0
1 -158 0
2090 610 159 -612 0
2090 610 -159 612 0
2090 -610 159 612 0
2090 -610 -159 -612 0
2090 611 159 -613 0
2090 611 -159 613 0
2090 -611 159 613 0
2090 -611 -159 -613 0
2090 592 159 -614 0
2090 592 -159 614 0
2090 -592 159 614 0
2090 -592 -159 -614 0
1 -159 0
2090 612 160 -615 0
2090 612 -160 615 0
2090 -612 160 615 0
2090 -612 -160 -615 0
2090 613 160 -616 0
2090 613 -160 616 0
2090 -613 160 616 0
2090 -613 -160 -616 0
2090 609 160 -617 0
2090 609 -160 617 0
2090 -609 160 617 0
2090 -609 -160 -617 0
1 -160 0
2090 607 161 -618 0
2090 607 -161 618 0
2090 -607 161 618 0
2090 -607 -161 -618 0
1 -161 0
2090 618 162 -619 0
2090 618 -162 619 0
2090 -618 162 619 0
2090 -618 -162 -619 0
2090 616 162 -620 0
2090 616 -162 620 0
2090 -616 162 620 0
2090 -616 -162 -620 0
1 -162 0
2090 619 163 -621 0
2090 619 -163 621 0
2090 -619 163 621 0
2090 -619 -163 -621 0
2090 620 163 -622 0
2090 620 -163 622 0
2090 -620 163 622 0
2090 -620 -163 -622 0
2090 617 163 -623 0
2090 617 -163 623 0
2090 -617 163 623 0
2090 -617 -163 -623 0
1 -163 0
2090 621 164 -624 0
2090 621 -164 624 0
2090 -621 164 624 0
2090 -621 -164 -624 0
2090 622 164 -625 0
2090 622 -164 625 0
2090 -622 164 625 0
2090 -622 -164 -625 0
2090 596 164 -626 0
2090 596 -164 626 0
2090 -596 164 626 0
2090 -596 -164 -626 0
1 -164 0
2090 624 165 -627 0
2090 624 -165 627 0
2090 -624 165 627 0
2090 -624 -165 -627 0
2090 623 165 -628 0
2090 623 -165 628 0
2090 -623 165 628 0
2090 -623 -165 -628 0
2090 626 165 -629 0
2090 626 -165 629 0
2090 -626 165 629 0
2090 -626 -165 -629 0
1 -165 0
2090 627 166 -630 0
2090 627 -166 630 0
2090 -627 166 630 0
2090 -627 -166 -630 0
2090 629 166 -631 0
2090 629 -166 631 0
2090 -629 166 631 0
2090 -629 -166 -631 0
1 -166 0
2090 625 167 -632 0
2090 625 -167 632 0
2090 -625 167 632 0
2090 -625 -167 -632 0
1 -167 0
2090 632 168 -633 0
2090 632 -168 633 0
2090 -632 168 633 0
2090 -632 -168 -633 0
2090 614 168 -634 0
2090 614 -168 634 0
2090 -614 168 634 0
2090 -614 -168 -634 0
1 -168 0
2090 633 169 -635 0
2090 633 -169 635 0
2090 -633 169 635 0
2090 -633 -169 -635 0
2090 628 169 -636 0
2090 628 -169 636 0
2090 -628 169 636 0
2090 -628 -169 -636 0
1 -169 0
2090 635 170 -637 0
2090 635 -170 637 0
2090 -635 170 637 0
2090 -635 -170 -637 0
2090 631 170 -638 0
2090 631 -170 638 0
2090 -631 170 638 0
2090 -631 -170 -638 0
1 -170 0
2090 634 171 -639 0
2090 634 -171 639 0
2090 -634 171 639 0
2090 -634 -171 -639 0
2090 636 171 -640 0
2090 636 -171 640 0
2090 -636 171 640 0
2090 -636 -171 -640 0
1 -171 0
2090 639 172 -641 0
2090 639 -172 641 0
2090 -639 172 641 0
2090 -639 -172 -641 0
2090 599 172 -642 0
2090 599 -172 642 0
2090 -599 172 642 0
2090 -599 -172 -642 0
1 -172 0
2090 640 173 -643 0
2090 640 -173 643 0
2090 -640 173 643 0
2090 -640 -173 -643 0
2090 638 173 -644 0
2090 638 -173 644 0
2090 -638 173 644 0
2090 -638 -173 -644 0
1 -173 0
2090 643 174 -645 0
2090 643 -174 645 0
2090 -643 174 645 0
2090 -643 -174 -645 0
2090 642 174 -646 0
2090 642 -174 646 0
2090 -642 174 646 0
2090 -642 -174 -646 0
1 -174 0
2090 644 175 -647 0
2090 644 -175 647 0
2090 -644 175 647 0
2090 -644 -175 -647 0
1 -175 0
2090 -180 0
2090 -183 0
2090 -185 0
2090 -8 0
2090 -9 0
2090 -10 0
2090 -11 0
2090 -12 0
2090 -13 0
2090 -223 0
2090 -252 0
2090 -306 0
2090 -350 0
2090 -416 0
2090 -488 0
2090 -524 0
2090 -532 0
2090 -554 0
2090 -597 0
2090 -615 0
2090 -630 0
2090 -637 0
2090 -641 0
2090 -645 0
2090 -647 0
2090 646 0
